n = 4;
nb_couleurs = 8;
nb_couleurs2 = 9;
nb_formes = 5;
nb_variantes = 5;
gris = 1;
t = [|1,307,992,1,
|1,307,732,307,
|1,992,850,307,
|1,1,850,992,
|992,537,1250,1,
|732,992,992,537,
|850,757,992,992,
|850,1,647,757,
|1250,1438,1438,1,
|992,647,1250,1438,
|992,1692,992,647,
|647,1,1472,1692,
|1438,1250,1,1,
|1250,339,1,1250,
|992,1472,1,339,
|1472,1,1,1472,
|];